10 39 11
1 1 1 0
1 2 2 3
1 3 6 4 5
1 4 8 7 9
1 5 13 10 11 12
1 6 16 14 17 15
1 7 19 20 22 18 21
1 8 23 27 26 25 24
1 9 31 29 32 30 28
1 10 33 37 34 38 35 36
1
1
1
1
1
1
1
1
1
1
1
1
1
1
1
1
1
1
1
1
1
1
1
1
1
1
1
1
1
1
1
1
1
1
1
1
1
1
1